2
29
43
40	35
1	1	4	17	
2	1	31	3	
3	2	5	16	19	6	
4	1	5	15	
5	1	29	3	
6	1	13	6	
7	1	23	2	
8	2	5	13	16	2	
9	1	10	10	
10	1	9	5	
11	2	18	9	8	6	
12	2	28	4	35	3	
13	2	8	7	21	3	
14	2	6	14	31	2	
15	2	17	9	25	2	
16	1	10	6	
17	2	19	10	14	5	
18	2	14	9	35	4	
19	1	21	3	
20	1	7	8	
21	1	5	10	
22	2	18	7	29	4	
23	1	31	3	
24	1	8	9	
25	2	4	14	6	11	
26	2	7	16	26	2	
27	1	26	4	
28	2	27	4	25	3	
29	2	13	8	20	3	
